TOUR_SECTION
1
122
108
29
42
190
118
110
47
133
18
145
34
102
37
188
23
69
146
95
143
58
50
56
166
121
24
62
26
163
91
192
21
107
27
90
54
201
67
32
33
198
191
150
81
98
129
142
48
181
149
183
159
132
57
180
115
173
46
30
92
85
158
104
71
161
12
125
167
64
89
10
20
88
15
131
168
66
14
36
153
160
124
86
175
100
134
70
197
61
141
162
128
77
171
74
76
79
65
117
3
51
4
13
45
152
82
73
151
176
59
101
78
182
38
94
185
9
17
157
120
63
164
2
174
11
119
68
116
195
165
114
177
138
196
8
193
28
41
186
6
106
22
111
35
112
140
53
200
19
84
155
199
137
147
113
52
105
93
25
184
179
99
154
80
127
49
43
189
83
72
39
170
130
187
55
60
16
178
169
97
87
5
40
31
44
96
194
123
75
103
109
148
172
135
7
139
136
126
144
156
-1
EOF